29707
1 1 1 1 1 1 1 1 1 1 1 1 1 1 1 1 1 1 1 1 1 1 1 1 1 1 1 1 1 1
23 20 1 15 9 26 8 3 6 25 9 7 8 14 27 2 14 16 16 20 16 16 4 5 17 9 21 0 5 16 11 10 7 3 2 16 7 24 5 10 1 25 26 7 22 5 12 5 22 19 17 14 24 4 17 28 5 5 14 15 12 11 13 25 15 21 5 14 6 10 29 9 2 8 14 15 12 11 3 14 5 25 11 23 20 5 15 3 24 15 9 24 0 21 29 17 0 29 22 3 6 9 19 11 27 19 1 11 13 9 25 17 29 1 7 17 19 19 11 18 15 10 10 22 28 11 21 4 8 2 10 12 12 27 16 4 5 23 14 1 6 17 19 11 6 19 11 8 18 9 8 11 5 27 4 25 0 24 12 17 23 8 19 17 11 0 2 5 19 23 17 19 24 20 23 10 2 18 27 4 26 4 28 22 28 15 29 4 28 29 16 8 28 20 8 10 4 18 27 8